3
20
4898
[[142,932,963, 26, 44,758,725,196,842,251,668,576,391,691,126,234, 47,533,813,763],
 [306,348,231,853,794,621,265,667,687,772,389,553,391,287,100,413,249,741,630,691],
 [234,666,831,368,227,624,723,390,284,354,730,204,599,956,253,473,907,730,750,172]]
[743,989,513, 60,562, 78,254,160,358, 21,816,526,413,258,268,953,676,634,850,664]